25
17
0 17 18 19 21 23 24
1 17 18 19 20 21
2 17 19 21 23 24
3 17 18 21 23 24
4 17 18 19 20 21 24
5 18 19 20 21
6 19 21 24
7 17 20 21 23
8 18 20
9 17 20 23 24
10 17 18 19 23
11 21 22 23 24
12 24
13 17 19 20
14 22
15 18
16
